Maximize

3 x_0 + 3 x_1 + 2 x_2 + 1 x_3 + 3 x_4 + 1 x_5 + 1 x_6 + 1 x_7 + 0 x_8 + 1 x_9 + 5 x_10 + 2 x_11 + 2 x_12 + 2 x_13 + 2 x_14 + 0 x_15 + 4 x_16 + 1 x_17 + 3 x_18 + 2 x_19 + 5 x_20 + 4 x_21 + 1 x_22 + 1 x_23 + 1 x_24 + 0 x_25 + 4 x_26 + 3 x_27 + 4 x_28 + 5 x_29 + 4 x_30 + 3 x_31 + 3 x_32 + 4 x_33 + 3 x_34 + 1 x_35 + 1 x_36 + 2 x_37 + 1 x_38 + 1 x_39 + 4 x_40 + 2 x_41 + 1 x_42 + 0 x_43 + 3 x_44 + 4 x_45 + 1 x_46 + 3 x_47 + 1 x_48 + 1 x_49 + 1 x_50 + 4 x_51 + 1 x_52 + 2 x_53 + 1 x_54 + 4 x_55 + 4 x_56 + 3 x_57 + 3 x_58 + 2 x_59 + 0 x_60 + 2 x_61 + 1 x_62 + 3 x_63 + 4 x_64 + 0 x_65 + 2 x_66 + 5 x_67 + 3 x_68 + 1 x_69 + 1 x_70 + 1 x_71 + 1 x_72 + 2 x_73 + 3 x_74 + 2 x_75 + 2 x_76 + 1 x_77 + 0 x_78 + 1 x_79 + 3 x_80 + 2 x_81 + 5 x_82 + 5 x_83 + 0 x_84 + 3 x_85 + 0 x_86 + 5 x_87 + 4 x_88 + 1 x_89 + 1 x_90 + 1 x_91 + 0 x_92 + 2 x_93 + 2 x_94 + 0 x_95 + 2 x_96 + 0 x_97 + 3 x_98 + 1 x_99


Subject To

a0: 0 x_0 + 0 x_1 + 0 x_2 + 1 x_3 + 0 x_4 + 1 x_5 + 0 x_6 + 0 x_7 + 0 x_8 + 0 x_9 + 0 x_10 + 0 x_11 + 0 x_12 + 0 x_13 + 0 x_14 + 1 x_15 + 0 x_16 + 0 x_17 + 0 x_18 + 0 x_19 + 0 x_20 + 0 x_21 + 0 x_22 + 0 x_23 + 0 x_24 + 0 x_25 + 0 x_26 + 0 x_27 + 0 x_28 + 0 x_29 + 0 x_30 + 0 x_31 + 0 x_32 + 0 x_33 + 0 x_34 + 0 x_35 + 0 x_36 + 0 x_37 + 0 x_38 + 0 x_39 + 1 x_40 + 0 x_41 + 0 x_42 + 0 x_43 + 0 x_44 + 0 x_45 + 0 x_46 + 0 x_47 + 0 x_48 + 0 x_49 + 0 x_50 + 0 x_51 + 1 x_52 + 0 x_53 + 0 x_54 + 0 x_55 + 1 x_56 + 1 x_57 + 0 x_58 + 0 x_59 + 0 x_60 + 0 x_61 + 0 x_62 + 0 x_63 + 0 x_64 + 0 x_65 + 0 x_66 + 0 x_67 + 0 x_68 + 0 x_69 + 1 x_70 + 0 x_71 + 0 x_72 + 0 x_73 + 0 x_74 + 0 x_75 + 0 x_76 + 0 x_77 + 0 x_78 + 0 x_79 + 0 x_80 + 0 x_81 + 0 x_82 + 0 x_83 + 0 x_84 + 0 x_85 + 0 x_86 + 1 x_87 + 0 x_88 + 0 x_89 + 0 x_90 + 0 x_91 + 0 x_92 + 0 x_93 + 0 x_94 + 0 x_95 + 0 x_96 + 0 x_97 + 0 x_98 + 0 x_99 >= 1
a1: 0 x_0 + 0 x_1 + 0 x_2 + 0 x_3 + 1 x_4 + 0 x_5 + 1 x_6 + 0 x_7 + 0 x_8 + 0 x_9 + 0 x_10 + 0 x_11 + 0 x_12 + 0 x_13 + 0 x_14 + 0 x_15 + 0 x_16 + 0 x_17 + 0 x_18 + 0 x_19 + 0 x_20 + 0 x_21 + 0 x_22 + 0 x_23 + 0 x_24 + 0 x_25 + 0 x_26 + 1 x_27 + 0 x_28 + 0 x_29 + 0 x_30 + 0 x_31 + 0 x_32 + 0 x_33 + 0 x_34 + 1 x_35 + 0 x_36 + 0 x_37 + 0 x_38 + 0 x_39 + 0 x_40 + 1 x_41 + 0 x_42 + 0 x_43 + 1 x_44 + 0 x_45 + 0 x_46 + 0 x_47 + 0 x_48 + 0 x_49 + 1 x_50 + 0 x_51 + 0 x_52 + 0 x_53 + 0 x_54 + 0 x_55 + 0 x_56 + 0 x_57 + 0 x_58 + 0 x_59 + 0 x_60 + 0 x_61 + 0 x_62 + 0 x_63 + 0 x_64 + 0 x_65 + 0 x_66 + 0 x_67 + 0 x_68 + 0 x_69 + 0 x_70 + 0 x_71 + 0 x_72 + 1 x_73 + 0 x_74 + 0 x_75 + 1 x_76 + 0 x_77 + 0 x_78 + 0 x_79 + 0 x_80 + 0 x_81 + 0 x_82 + 0 x_83 + 1 x_84 + 0 x_85 + 0 x_86 + 0 x_87 + 0 x_88 + 0 x_89 + 1 x_90 + 0 x_91 + 0 x_92 + 0 x_93 + 0 x_94 + 0 x_95 + 0 x_96 + 0 x_97 + 0 x_98 + 0 x_99 >= 1
a2: 0 x_0 + 0 x_1 + 0 x_2 + 0 x_3 + 1 x_4 + 0 x_5 + 0 x_6 + 0 x_7 + 1 x_8 + 0 x_9 + 0 x_10 + 0 x_11 + 0 x_12 + 0 x_13 + 0 x_14 + 0 x_15 + 0 x_16 + 0 x_17 + 0 x_18 + 0 x_19 + 0 x_20 + 0 x_21 + 0 x_22 + 1 x_23 + 0 x_24 + 0 x_25 + 0 x_26 + 0 x_27 + 0 x_28 + 0 x_29 + 0 x_30 + 0 x_31 + 0 x_32 + 0 x_33 + 0 x_34 + 0 x_35 + 1 x_36 + 0 x_37 + 0 x_38 + 0 x_39 + 0 x_40 + 1 x_41 + 0 x_42 + 0 x_43 + 0 x_44 + 0 x_45 + 0 x_46 + 0 x_47 + 1 x_48 + 1 x_49 + 1 x_50 + 0 x_51 + 0 x_52 + 0 x_53 + 0 x_54 + 0 x_55 + 1 x_56 + 0 x_57 + 0 x_58 + 0 x_59 + 0 x_60 + 0 x_61 + 0 x_62 + 0 x_63 + 0 x_64 + 1 x_65 + 1 x_66 + 1 x_67 + 0 x_68 + 0 x_69 + 0 x_70 + 1 x_71 + 0 x_72 + 0 x_73 + 0 x_74 + 0 x_75 + 0 x_76 + 0 x_77 + 0 x_78 + 0 x_79 + 0 x_80 + 0 x_81 + 0 x_82 + 1 x_83 + 1 x_84 + 0 x_85 + 0 x_86 + 0 x_87 + 0 x_88 + 1 x_89 + 0 x_90 + 0 x_91 + 0 x_92 + 0 x_93 + 0 x_94 + 0 x_95 + 0 x_96 + 0 x_97 + 0 x_98 + 0 x_99 >= 1
a3: 0 x_0 + 0 x_1 + 0 x_2 + 0 x_3 + 0 x_4 + 1 x_5 + 0 x_6 + 0 x_7 + 0 x_8 + 0 x_9 + 0 x_10 + 0 x_11 + 0 x_12 + 0 x_13 + 0 x_14 + 0 x_15 + 0 x_16 + 0 x_17 + 0 x_18 + 0 x_19 + 0 x_20 + 1 x_21 + 0 x_22 + 0 x_23 + 1 x_24 + 0 x_25 + 0 x_26 + 0 x_27 + 0 x_28 + 0 x_29 + 0 x_30 + 0 x_31 + 1 x_32 + 1 x_33 + 0 x_34 + 0 x_35 + 0 x_36 + 0 x_37 + 0 x_38 + 0 x_39 + 0 x_40 + 0 x_41 + 0 x_42 + 0 x_43 + 0 x_44 + 0 x_45 + 0 x_46 + 0 x_47 + 1 x_48 + 0 x_49 + 0 x_50 + 0 x_51 + 0 x_52 + 0 x_53 + 0 x_54 + 1 x_55 + 0 x_56 + 1 x_57 + 0 x_58 + 0 x_59 + 0 x_60 + 0 x_61 + 0 x_62 + 0 x_63 + 0 x_64 + 1 x_65 + 0 x_66 + 0 x_67 + 0 x_68 + 0 x_69 + 0 x_70 + 1 x_71 + 0 x_72 + 0 x_73 + 0 x_74 + 0 x_75 + 0 x_76 + 0 x_77 + 0 x_78 + 0 x_79 + 1 x_80 + 0 x_81 + 0 x_82 + 0 x_83 + 0 x_84 + 0 x_85 + 0 x_86 + 0 x_87 + 1 x_88 + 0 x_89 + 0 x_90 + 0 x_91 + 0 x_92 + 0 x_93 + 0 x_94 + 0 x_95 + 1 x_96 + 0 x_97 + 0 x_98 + 0 x_99 >= 1
a4: 0 x_0 + 0 x_1 + 1 x_2 + 0 x_3 + 0 x_4 + 0 x_5 + 0 x_6 + 0 x_7 + 0 x_8 + 0 x_9 + 0 x_10 + 1 x_11 + 0 x_12 + 0 x_13 + 0 x_14 + 0 x_15 + 0 x_16 + 0 x_17 + 1 x_18 + 0 x_19 + 0 x_20 + 0 x_21 + 1 x_22 + 0 x_23 + 0 x_24 + 0 x_25 + 0 x_26 + 0 x_27 + 0 x_28 + 0 x_29 + 1 x_30 + 0 x_31 + 0 x_32 + 0 x_33 + 0 x_34 + 0 x_35 + 0 x_36 + 0 x_37 + 0 x_38 + 0 x_39 + 0 x_40 + 0 x_41 + 1 x_42 + 0 x_43 + 0 x_44 + 0 x_45 + 0 x_46 + 0 x_47 + 0 x_48 + 0 x_49 + 0 x_50 + 0 x_51 + 0 x_52 + 0 x_53 + 0 x_54 + 0 x_55 + 0 x_56 + 0 x_57 + 0 x_58 + 0 x_59 + 0 x_60 + 0 x_61 + 0 x_62 + 0 x_63 + 1 x_64 + 0 x_65 + 1 x_66 + 0 x_67 + 0 x_68 + 0 x_69 + 0 x_70 + 0 x_71 + 0 x_72 + 0 x_73 + 0 x_74 + 0 x_75 + 0 x_76 + 0 x_77 + 0 x_78 + 0 x_79 + 0 x_80 + 0 x_81 + 0 x_82 + 0 x_83 + 0 x_84 + 0 x_85 + 0 x_86 + 0 x_87 + 0 x_88 + 0 x_89 + 0 x_90 + 0 x_91 + 0 x_92 + 0 x_93 + 0 x_94 + 0 x_95 + 1 x_96 + 0 x_97 + 0 x_98 + 0 x_99 >= 1
a5: 0 x_0 + 0 x_1 + 0 x_2 + 1 x_3 + 0 x_4 + 0 x_5 + 0 x_6 + 0 x_7 + 0 x_8 + 0 x_9 + 0 x_10 + 1 x_11 + 0 x_12 + 0 x_13 + 0 x_14 + 0 x_15 + 0 x_16 + 0 x_17 + 0 x_18 + 0 x_19 + 0 x_20 + 0 x_21 + 0 x_22 + 0 x_23 + 0 x_24 + 0 x_25 + 0 x_26 + 1 x_27 + 0 x_28 + 0 x_29 + 0 x_30 + 0 x_31 + 0 x_32 + 0 x_33 + 0 x_34 + 0 x_35 + 0 x_36 + 0 x_37 + 0 x_38 + 0 x_39 + 0 x_40 + 0 x_41 + 1 x_42 + 0 x_43 + 0 x_44 + 0 x_45 + 0 x_46 + 0 x_47 + 0 x_48 + 0 x_49 + 0 x_50 + 0 x_51 + 0 x_52 + 0 x_53 + 0 x_54 + 0 x_55 + 0 x_56 + 0 x_57 + 1 x_58 + 0 x_59 + 0 x_60 + 0 x_61 + 0 x_62 + 0 x_63 + 0 x_64 + 0 x_65 + 0 x_66 + 0 x_67 + 1 x_68 + 0 x_69 + 1 x_70 + 0 x_71 + 0 x_72 + 0 x_73 + 0 x_74 + 1 x_75 + 0 x_76 + 0 x_77 + 0 x_78 + 0 x_79 + 0 x_80 + 1 x_81 + 0 x_82 + 0 x_83 + 0 x_84 + 0 x_85 + 0 x_86 + 1 x_87 + 1 x_88 + 0 x_89 + 0 x_90 + 0 x_91 + 0 x_92 + 0 x_93 + 0 x_94 + 0 x_95 + 0 x_96 + 0 x_97 + 1 x_98 + 0 x_99 >= 1
a6: 0 x_0 + 0 x_1 + 1 x_2 + 0 x_3 + 0 x_4 + 0 x_5 + 1 x_6 + 0 x_7 + 0 x_8 + 0 x_9 + 0 x_10 + 0 x_11 + 0 x_12 + 0 x_13 + 0 x_14 + 0 x_15 + 0 x_16 + 0 x_17 + 0 x_18 + 0 x_19 + 0 x_20 + 1 x_21 + 0 x_22 + 1 x_23 + 0 x_24 + 0 x_25 + 0 x_26 + 0 x_27 + 0 x_28 + 1 x_29 + 0 x_30 + 1 x_31 + 0 x_32 + 0 x_33 + 0 x_34 + 0 x_35 + 0 x_36 + 1 x_37 + 0 x_38 + 0 x_39 + 0 x_40 + 0 x_41 + 0 x_42 + 0 x_43 + 0 x_44 + 0 x_45 + 0 x_46 + 0 x_47 + 0 x_48 + 0 x_49 + 0 x_50 + 0 x_51 + 0 x_52 + 0 x_53 + 0 x_54 + 0 x_55 + 0 x_56 + 0 x_57 + 0 x_58 + 0 x_59 + 1 x_60 + 0 x_61 + 1 x_62 + 0 x_63 + 0 x_64 + 0 x_65 + 0 x_66 + 0 x_67 + 0 x_68 + 0 x_69 + 0 x_70 + 0 x_71 + 0 x_72 + 0 x_73 + 0 x_74 + 0 x_75 + 0 x_76 + 0 x_77 + 0 x_78 + 0 x_79 + 0 x_80 + 0 x_81 + 0 x_82 + 0 x_83 + 0 x_84 + 0 x_85 + 0 x_86 + 0 x_87 + 0 x_88 + 0 x_89 + 0 x_90 + 0 x_91 + 0 x_92 + 0 x_93 + 0 x_94 + 1 x_95 + 0 x_96 + 0 x_97 + 0 x_98 + 0 x_99 >= 1
a7: 1 x_0 + 0 x_1 + 0 x_2 + 0 x_3 + 0 x_4 + 0 x_5 + 0 x_6 + 0 x_7 + 0 x_8 + 0 x_9 + 0 x_10 + 0 x_11 + 0 x_12 + 0 x_13 + 0 x_14 + 0 x_15 + 0 x_16 + 0 x_17 + 0 x_18 + 1 x_19 + 0 x_20 + 0 x_21 + 1 x_22 + 0 x_23 + 0 x_24 + 0 x_25 + 0 x_26 + 0 x_27 + 0 x_28 + 0 x_29 + 0 x_30 + 0 x_31 + 0 x_32 + 0 x_33 + 1 x_34 + 1 x_35 + 0 x_36 + 1 x_37 + 0 x_38 + 0 x_39 + 0 x_40 + 1 x_41 + 0 x_42 + 0 x_43 + 0 x_44 + 0 x_45 + 0 x_46 + 0 x_47 + 0 x_48 + 0 x_49 + 0 x_50 + 0 x_51 + 0 x_52 + 1 x_53 + 0 x_54 + 0 x_55 + 0 x_56 + 0 x_57 + 0 x_58 + 0 x_59 + 0 x_60 + 0 x_61 + 0 x_62 + 0 x_63 + 0 x_64 + 0 x_65 + 1 x_66 + 0 x_67 + 1 x_68 + 0 x_69 + 1 x_70 + 0 x_71 + 0 x_72 + 1 x_73 + 0 x_74 + 0 x_75 + 0 x_76 + 0 x_77 + 1 x_78 + 0 x_79 + 1 x_80 + 1 x_81 + 0 x_82 + 0 x_83 + 0 x_84 + 0 x_85 + 0 x_86 + 0 x_87 + 0 x_88 + 0 x_89 + 0 x_90 + 0 x_91 + 0 x_92 + 0 x_93 + 0 x_94 + 0 x_95 + 0 x_96 + 1 x_97 + 0 x_98 + 0 x_99 >= 1
a8: 0 x_0 + 0 x_1 + 0 x_2 + 0 x_3 + 1 x_4 + 0 x_5 + 0 x_6 + 0 x_7 + 0 x_8 + 0 x_9 + 1 x_10 + 0 x_11 + 0 x_12 + 0 x_13 + 0 x_14 + 0 x_15 + 0 x_16 + 1 x_17 + 0 x_18 + 0 x_19 + 0 x_20 + 0 x_21 + 0 x_22 + 0 x_23 + 0 x_24 + 0 x_25 + 0 x_26 + 0 x_27 + 0 x_28 + 0 x_29 + 0 x_30 + 0 x_31 + 0 x_32 + 0 x_33 + 0 x_34 + 0 x_35 + 0 x_36 + 1 x_37 + 0 x_38 + 0 x_39 + 1 x_40 + 0 x_41 + 0 x_42 + 0 x_43 + 0 x_44 + 0 x_45 + 0 x_46 + 0 x_47 + 0 x_48 + 0 x_49 + 0 x_50 + 0 x_51 + 1 x_52 + 0 x_53 + 1 x_54 + 0 x_55 + 0 x_56 + 0 x_57 + 0 x_58 + 0 x_59 + 0 x_60 + 1 x_61 + 0 x_62 + 1 x_63 + 1 x_64 + 0 x_65 + 0 x_66 + 0 x_67 + 0 x_68 + 1 x_69 + 0 x_70 + 0 x_71 + 0 x_72 + 0 x_73 + 0 x_74 + 0 x_75 + 0 x_76 + 1 x_77 + 0 x_78 + 0 x_79 + 0 x_80 + 0 x_81 + 0 x_82 + 0 x_83 + 0 x_84 + 0 x_85 + 0 x_86 + 0 x_87 + 0 x_88 + 0 x_89 + 0 x_90 + 0 x_91 + 0 x_92 + 0 x_93 + 0 x_94 + 0 x_95 + 0 x_96 + 0 x_97 + 0 x_98 + 1 x_99 >= 1
a9: 1 x_0 + 0 x_1 + 0 x_2 + 0 x_3 + 0 x_4 + 0 x_5 + 0 x_6 + 0 x_7 + 0 x_8 + 0 x_9 + 0 x_10 + 0 x_11 + 0 x_12 + 0 x_13 + 0 x_14 + 0 x_15 + 0 x_16 + 0 x_17 + 0 x_18 + 0 x_19 + 0 x_20 + 0 x_21 + 0 x_22 + 0 x_23 + 0 x_24 + 0 x_25 + 0 x_26 + 0 x_27 + 0 x_28 + 0 x_29 + 0 x_30 + 1 x_31 + 0 x_32 + 0 x_33 + 0 x_34 + 1 x_35 + 1 x_36 + 0 x_37 + 0 x_38 + 1 x_39 + 0 x_40 + 0 x_41 + 0 x_42 + 0 x_43 + 0 x_44 + 0 x_45 + 0 x_46 + 0 x_47 + 0 x_48 + 0 x_49 + 0 x_50 + 0 x_51 + 0 x_52 + 1 x_53 + 0 x_54 + 0 x_55 + 0 x_56 + 0 x_57 + 1 x_58 + 1 x_59 + 1 x_60 + 0 x_61 + 0 x_62 + 0 x_63 + 0 x_64 + 0 x_65 + 0 x_66 + 0 x_67 + 1 x_68 + 0 x_69 + 0 x_70 + 0 x_71 + 0 x_72 + 0 x_73 + 0 x_74 + 0 x_75 + 1 x_76 + 0 x_77 + 0 x_78 + 0 x_79 + 0 x_80 + 0 x_81 + 0 x_82 + 0 x_83 + 0 x_84 + 1 x_85 + 0 x_86 + 0 x_87 + 0 x_88 + 1 x_89 + 0 x_90 + 0 x_91 + 0 x_92 + 0 x_93 + 1 x_94 + 1 x_95 + 1 x_96 + 0 x_97 + 0 x_98 + 0 x_99 >= 1
b0: x_0 + x_43 <= 1
b1: x_0 + x_82 <= 1
b2: x_1 + x_42 <= 1
b3: x_1 + x_51 <= 1
b4: x_2 + x_12 <= 1
b5: x_2 + x_35 <= 1
b6: x_2 + x_48 <= 1
b7: x_2 + x_49 <= 1
b8: x_3 + x_54 <= 1
b9: x_3 + x_81 <= 1
b10: x_4 + x_19 <= 1
b11: x_4 + x_37 <= 1
b12: x_4 + x_71 <= 1
b13: x_4 + x_87 <= 1
b14: x_5 + x_17 <= 1
b15: x_5 + x_31 <= 1
b16: x_6 + x_47 <= 1
b17: x_6 + x_64 <= 1
b18: x_6 + x_86 <= 1
b19: x_7 + x_30 <= 1
b20: x_7 + x_96 <= 1
b21: x_8 + x_84 <= 1
b22: x_9 + x_39 <= 1
b23: x_10 + x_57 <= 1
b24: x_10 + x_96 <= 1
b25: x_11 + x_60 <= 1
b26: x_11 + x_75 <= 1
b27: x_12 + x_2 <= 1
b28: x_12 + x_22 <= 1
b29: x_13 + x_55 <= 1
b30: x_14 + x_28 <= 1
b31: x_14 + x_39 <= 1
b32: x_14 + x_91 <= 1
b33: x_15 + x_39 <= 1
b34: x_16 + x_58 <= 1
b35: x_17 + x_5 <= 1
b36: x_18 + x_65 <= 1
b37: x_18 + x_84 <= 1
b38: x_18 + x_93 <= 1
b39: x_19 + x_4 <= 1
b40: x_20 + x_81 <= 1
b41: x_21 + x_35 <= 1
b42: x_21 + x_75 <= 1
b43: x_22 + x_12 <= 1
b44: x_23 + x_62 <= 1
b45: x_23 + x_89 <= 1
b46: x_23 + x_98 <= 1
b47: x_24 + x_90 <= 1
b48: x_25 + x_63 <= 1
b49: x_26 + x_36 <= 1
b50: x_26 + x_46 <= 1
b51: x_26 + x_48 <= 1
b52: x_27 + x_72 <= 1
b53: x_27 + x_77 <= 1
b54: x_28 + x_14 <= 1
b55: x_28 + x_58 <= 1
b56: x_28 + x_68 <= 1
b57: x_29 + x_41 <= 1
b58: x_29 + x_94 <= 1
b59: x_30 + x_7 <= 1
b60: x_30 + x_53 <= 1
b61: x_30 + x_85 <= 1
b62: x_31 + x_5 <= 1
b63: x_31 + x_78 <= 1
b64: x_31 + x_92 <= 1
b65: x_32 + x_92 <= 1
b66: x_33 + x_82 <= 1
b67: x_34 + x_49 <= 1
b68: x_34 + x_69 <= 1
b69: x_34 + x_74 <= 1
b70: x_35 + x_2 <= 1
b71: x_35 + x_21 <= 1
b72: x_36 + x_26 <= 1
b73: x_36 + x_90 <= 1
b74: x_37 + x_4 <= 1
b75: x_37 + x_56 <= 1
b76: x_37 + x_95 <= 1
b77: x_38 + x_81 <= 1
b78: x_39 + x_9 <= 1
b79: x_39 + x_14 <= 1
b80: x_39 + x_15 <= 1
b81: x_40 + x_78 <= 1
b82: x_41 + x_29 <= 1
b83: x_41 + x_48 <= 1
b84: x_41 + x_79 <= 1
b85: x_42 + x_1 <= 1
b86: x_42 + x_89 <= 1
b87: x_43 + x_0 <= 1
b88: x_43 + x_87 <= 1
b89: x_44 + x_97 <= 1
b90: x_45 + x_62 <= 1
b91: x_45 + x_97 <= 1
b92: x_46 + x_26 <= 1
b93: x_46 + x_62 <= 1
b94: x_47 + x_6 <= 1
b95: x_47 + x_58 <= 1
b96: x_47 + x_78 <= 1
b97: x_47 + x_86 <= 1
b98: x_48 + x_2 <= 1
b99: x_48 + x_26 <= 1
b100: x_48 + x_41 <= 1
b101: x_48 + x_88 <= 1
b102: x_49 + x_2 <= 1
b103: x_49 + x_34 <= 1
b104: x_49 + x_82 <= 1
b105: x_49 + x_83 <= 1
b106: x_50 + x_60 <= 1
b107: x_51 + x_1 <= 1
b108: x_52 + x_66 <= 1
b109: x_53 + x_30 <= 1
b110: x_53 + x_75 <= 1
b111: x_54 + x_3 <= 1
b112: x_55 + x_13 <= 1
b113: x_55 + x_80 <= 1
b114: x_56 + x_37 <= 1
b115: x_56 + x_79 <= 1
b116: x_57 + x_10 <= 1
b117: x_58 + x_16 <= 1
b118: x_58 + x_28 <= 1
b119: x_58 + x_47 <= 1
b120: x_59 + x_60 <= 1
b121: x_60 + x_11 <= 1
b122: x_60 + x_50 <= 1
b123: x_60 + x_59 <= 1
b124: x_60 + x_76 <= 1
b125: x_61 + x_74 <= 1
b126: x_61 + x_77 <= 1
b127: x_62 + x_23 <= 1
b128: x_62 + x_45 <= 1
b129: x_62 + x_46 <= 1
b130: x_63 + x_25 <= 1
b131: x_63 + x_80 <= 1
b132: x_63 + x_84 <= 1
b133: x_64 + x_6 <= 1
b134: x_64 + x_70 <= 1
b135: x_65 + x_18 <= 1
b136: x_66 + x_52 <= 1
b137: x_66 + x_98 <= 1
b138: x_67 + x_70 <= 1
b139: x_68 + x_28 <= 1
b140: x_69 + x_34 <= 1
b141: x_69 + x_81 <= 1
b142: x_70 + x_64 <= 1
b143: x_70 + x_67 <= 1
b144: x_71 + x_4 <= 1
b145: x_72 + x_27 <= 1
b146: x_73 + x_85 <= 1
b147: x_74 + x_34 <= 1
b148: x_74 + x_61 <= 1
b149: x_75 + x_11 <= 1
b150: x_75 + x_21 <= 1
b151: x_75 + x_53 <= 1
b152: x_76 + x_60 <= 1
b153: x_77 + x_27 <= 1
b154: x_77 + x_61 <= 1
b155: x_77 + x_80 <= 1
b156: x_78 + x_31 <= 1
b157: x_78 + x_40 <= 1
b158: x_78 + x_47 <= 1
b159: x_79 + x_41 <= 1
b160: x_79 + x_56 <= 1
b161: x_80 + x_55 <= 1
b162: x_80 + x_63 <= 1
b163: x_80 + x_77 <= 1
b164: x_81 + x_3 <= 1
b165: x_81 + x_20 <= 1
b166: x_81 + x_38 <= 1
b167: x_81 + x_69 <= 1
b168: x_82 + x_0 <= 1
b169: x_82 + x_33 <= 1
b170: x_82 + x_49 <= 1
b171: x_83 + x_49 <= 1
b172: x_84 + x_8 <= 1
b173: x_84 + x_18 <= 1
b174: x_84 + x_63 <= 1
b175: x_85 + x_30 <= 1
b176: x_85 + x_73 <= 1
b177: x_86 + x_6 <= 1
b178: x_86 + x_47 <= 1
b179: x_87 + x_4 <= 1
b180: x_87 + x_43 <= 1
b181: x_88 + x_48 <= 1
b182: x_88 + x_99 <= 1
b183: x_89 + x_23 <= 1
b184: x_89 + x_42 <= 1
b185: x_90 + x_24 <= 1
b186: x_90 + x_36 <= 1
b187: x_91 + x_14 <= 1
b188: x_92 + x_31 <= 1
b189: x_92 + x_32 <= 1
b190: x_93 + x_18 <= 1
b191: x_94 + x_29 <= 1
b192: x_95 + x_37 <= 1
b193: x_96 + x_7 <= 1
b194: x_96 + x_10 <= 1
b195: x_97 + x_44 <= 1
b196: x_97 + x_45 <= 1
b197: x_98 + x_23 <= 1
b198: x_98 + x_66 <= 1
b199: x_99 + x_88 <= 1
c0: 1308.4 x_0 + 1343.2 x_1 + 1300.9 x_2 + 1367.0 x_3 + 1230.9 x_4 + 1347.8 x_5 + 1983.6 x_6 + 1712.8 x_7 + 1436.5 x_8 + 1225.2 x_9 + 1516.6 x_10 + 1851.4 x_11 + 1537.7 x_12 + 1012.0 x_13 + 1218.3 x_14 + 1332.9 x_15 + 1434.4 x_16 + 1623.7 x_17 + 1433.5 x_18 + 1463.1 x_19 + 1901.8 x_20 + 1360.0 x_21 + 1099.9 x_22 + 1313.4 x_23 + 1250.8 x_24 + 1238.3 x_25 + 1414.4 x_26 + 1737.9 x_27 + 1054.9 x_28 + 1317.8 x_29 + 1899.2 x_30 + 1992.1 x_31 + 1189.5 x_32 + 1461.9 x_33 + 1342.3 x_34 + 1164.5 x_35 + 1488.2 x_36 + 1935.3 x_37 + 1171.3 x_38 + 1991.3 x_39 + 1312.0 x_40 + 1403.5 x_41 + 1872.7 x_42 + 1551.7 x_43 + 1046.1 x_44 + 1170.5 x_45 + 1518.3 x_46 + 1327.4 x_47 + 1888.7 x_48 + 1939.0 x_49 + 1830.8 x_50 + 1877.1 x_51 + 1438.3 x_52 + 1519.1 x_53 + 1063.9 x_54 + 1264.6 x_55 + 1555.8 x_56 + 1084.7 x_57 + 1624.5 x_58 + 1710.8 x_59 + 1312.8 x_60 + 1485.3 x_61 + 1418.9 x_62 + 1221.9 x_63 + 1087.0 x_64 + 1666.9 x_65 + 1177.5 x_66 + 1112.9 x_67 + 1163.2 x_68 + 1261.7 x_69 + 1025.1 x_70 + 1864.6 x_71 + 1618.2 x_72 + 1364.5 x_73 + 1290.2 x_74 + 1049.8 x_75 + 1356.2 x_76 + 1283.2 x_77 + 1511.4 x_78 + 1435.3 x_79 + 1048.0 x_80 + 1835.0 x_81 + 1047.6 x_82 + 1295.1 x_83 + 1355.4 x_84 + 1168.3 x_85 + 1584.5 x_86 + 1349.1 x_87 + 1761.4 x_88 + 1287.3 x_89 + 1984.9 x_90 + 1353.7 x_91 + 1206.0 x_92 + 1827.7 x_93 + 1109.9 x_94 + 1256.6 x_95 + 1739.0 x_96 + 1651.0 x_97 + 1437.6 x_98 + 1928.6 x_99 <= 49268




Binary

x_0 x_1 x_2 x_3 x_4 x_5 x_6 x_7 x_8 x_9 x_10 x_11 x_12 x_13 x_14 x_15 x_16 x_17 x_18 x_19 x_20 x_21 x_22 x_23 x_24 x_25 x_26 x_27 x_28 x_29 x_30 x_31 x_32 x_33 x_34 x_35 x_36 x_37 x_38 x_39 x_40 x_41 x_42 x_43 x_44 x_45 x_46 x_47 x_48 x_49 x_50 x_51 x_52 x_53 x_54 x_55 x_56 x_57 x_58 x_59 x_60 x_61 x_62 x_63 x_64 x_65 x_66 x_67 x_68 x_69 x_70 x_71 x_72 x_73 x_74 x_75 x_76 x_77 x_78 x_79 x_80 x_81 x_82 x_83 x_84 x_85 x_86 x_87 x_88 x_89 x_90 x_91 x_92 x_93 x_94 x_95 x_96 x_97 x_98 x_99

 


End
